p tw 40 87
e 0 7
e 0 17
e 0 27
e 1 8
e 1 11
e 1 20
e 1 22
e 1 25
e 1 29
e 1 30
e 2 8
e 2 10
e 2 20
e 2 25
e 2 34
e 2 36
e 3 30
e 4 15
e 5 17
e 5 24
e 5 27
e 5 32
e 5 39
e 6 13
e 6 15
e 6 33
e 7 32
e 8 27
e 8 33
e 9 17
e 9 32
e 9 37
e 10 13
e 10 27
e 10 30
e 10 31
e 11 14
e 11 34
e 11 36
e 12 17
e 12 19
e 13 21
e 13 22
e 13 24
e 13 28
e 13 34
e 14 22
e 14 37
e 14 39
e 15 31
e 15 32
e 15 35
e 16 17
e 16 18
e 16 22
e 16 24
e 16 26
e 16 30
e 16 31
e 16 37
e 17 23
e 17 37
e 18 21
e 18 23
e 18 27
e 18 29
e 18 33
e 19 32
e 19 37
e 20 21
e 20 22
e 20 32
e 20 36
e 21 39
e 22 24
e 23 30
e 23 32
e 24 28
e 24 34
e 25 38
e 25 39
e 26 35
e 27 39
e 30 32
e 31 38
e 33 35
e 36 38
